; CALLDATASIZE SWAP1 POP EQ ISZERO ISZERO => POP CALLDATASIZE EQ
(set-option :produce-proofs true)
; 
(set-info :status unknown)
(declare-fun storage_t ((_ BitVec 256) (_ BitVec 256) (_ BitVec 256) Int (_ BitVec 256)) (_ BitVec 256))
(declare-fun storage_s ((_ BitVec 256) (_ BitVec 256) (_ BitVec 256) Int (_ BitVec 256)) (_ BitVec 256))
(declare-fun exc_halt_t (Int) Bool)
(declare-fun exc_halt_s (Int) Bool)
(declare-fun stack_t ((_ BitVec 256) (_ BitVec 256) (_ BitVec 256) Int (_ BitVec 6)) (_ BitVec 256))
(declare-fun stack_s ((_ BitVec 256) (_ BitVec 256) (_ BitVec 256) Int (_ BitVec 6)) (_ BitVec 256))
(declare-fun sc_t (Int) (_ BitVec 6))
(declare-fun sc_s (Int) (_ BitVec 6))
(declare-fun used_gas_t ((_ BitVec 256) (_ BitVec 256) (_ BitVec 256) Int) Int)
(declare-fun used_gas_s ((_ BitVec 256) (_ BitVec 256) (_ BitVec 256) Int) Int)
(assert
 (exists ((x_0 (_ BitVec 256)) (x_1 (_ BitVec 256)) (x_CALLDATASIZE (_ BitVec 256)) )(let (($x8020 (forall ((w (_ BitVec 256)) )(let ((?x8780 (storage_t x_0 x_1 x_CALLDATASIZE 3 w)))
 (let ((?x7388 (storage_s x_0 x_1 x_CALLDATASIZE 6 w)))
 (= ?x7388 ?x8780))))
 ))
 (let (($x3614 (exc_halt_t 3)))
 (let (($x772 (exc_halt_s 6)))
 (let (($x10130 (= $x772 $x3614)))
 (let (($x412 (forall ((n (_ BitVec 6)) )(let ((?x2703 (stack_t x_0 x_1 x_CALLDATASIZE 3 n)))
 (let ((?x10855 (stack_s x_0 x_1 x_CALLDATASIZE 6 n)))
 (let (($x11694 (= ?x10855 ?x2703)))
 (let ((?x11304 (sc_t 3)))
 (let (($x2198 (bvsle ?x11304 n)))
 (or $x2198 $x11694)))))))
 ))
 (let ((?x11304 (sc_t 3)))
 (let ((?x926 (sc_s 6)))
 (let (($x2971 (= ?x926 ?x11304)))
 (let ((?x5852 (used_gas_t x_0 x_1 x_CALLDATASIZE 0)))
 (let ((?x3411 (used_gas_s x_0 x_1 x_CALLDATASIZE 0)))
 (let (($x3707 (= ?x3411 ?x5852)))
 (let (($x2479 (forall ((w (_ BitVec 256)) )(let ((?x3910 (storage_t x_0 x_1 x_CALLDATASIZE 0 w)))
 (let ((?x793 (storage_s x_0 x_1 x_CALLDATASIZE 0 w)))
 (= ?x793 ?x3910))))
 ))
 (let (($x56 (exc_halt_t 0)))
 (let (($x57 (exc_halt_s 0)))
 (let (($x58 (= $x57 $x56)))
 (let (($x11810 (forall ((n (_ BitVec 6)) )(let ((?x63 (sc_t 0)))
 (let (($x10756 (bvsle ?x63 n)))
 (let ((?x762 (stack_t x_0 x_1 x_CALLDATASIZE 0 n)))
 (let ((?x10131 (stack_s x_0 x_1 x_CALLDATASIZE 0 n)))
 (let (($x3407 (= ?x10131 ?x762)))
 (or $x3407 $x10756)))))))
 ))
 (let ((?x63 (sc_t 0)))
 (let ((?x72 (sc_s 0)))
 (let (($x73 (= ?x72 ?x63)))
 (let (($x6831 (= $x3614 (or (exc_halt_t 2) (not (bvsle (_ bv0 6) (bvadd (_ bv62 6) (sc_t 2))))))))
 (let (($x6586 (forall ((w (_ BitVec 256)) )(let ((?x8235 (storage_t x_0 x_1 x_CALLDATASIZE 2 w)))
 (let ((?x8780 (storage_t x_0 x_1 x_CALLDATASIZE 3 w)))
 (= ?x8780 ?x8235))))
 ))
 (let (($x2436 (forall ((n (_ BitVec 6)) )(let ((?x2714 (sc_t 2)))
 (let ((?x1705 (bvadd (_ bv62 6) ?x2714)))
 (let (($x10643 (bvsle ?x1705 n)))
 (let ((?x5485 (stack_t x_0 x_1 x_CALLDATASIZE 2 n)))
 (let ((?x2703 (stack_t x_0 x_1 x_CALLDATASIZE 3 n)))
 (or (= ?x2703 ?x5485) $x10643)))))))
 ))
 (let (($x3927 (= (used_gas_t x_0 x_1 x_CALLDATASIZE 3) (+ 3 (used_gas_t x_0 x_1 x_CALLDATASIZE 2)))))
 (let (($x6754 (= (stack_t x_0 x_1 x_CALLDATASIZE 2 (bvadd (_ bv63 6) (sc_t 2))) (stack_t x_0 x_1 x_CALLDATASIZE 2 (bvadd (_ bv62 6) (sc_t 2))))))
 (let (($x1928 (= (stack_t x_0 x_1 x_CALLDATASIZE 3 (bvadd (_ bv63 6) ?x11304)) (ite $x6754 (_ bv1 256) (_ bv0 256)))))
 (let (($x8377 (exc_halt_t 1)))
 (let (($x6611 (or $x8377 (not (= ((_ extract 6 6) (bvadd (_ bv1 7) (concat (_ bv0 1) (sc_t 1)))) (_ bv0 1))))))
 (let (($x4500 (exc_halt_t 2)))
 (let (($x1605 (= $x4500 $x6611)))
 (let (($x3305 (forall ((w (_ BitVec 256)) )(let ((?x10732 (storage_t x_0 x_1 x_CALLDATASIZE 1 w)))
 (let ((?x8235 (storage_t x_0 x_1 x_CALLDATASIZE 2 w)))
 (= ?x8235 ?x10732))))
 ))
 (let (($x4167 (forall ((n (_ BitVec 6)) )(let ((?x2250 (stack_t x_0 x_1 x_CALLDATASIZE 1 n)))
 (let ((?x5485 (stack_t x_0 x_1 x_CALLDATASIZE 2 n)))
 (let ((?x7154 (sc_t 1)))
 (let (($x1943 (bvsle ?x7154 n)))
 (or $x1943 (= ?x5485 ?x2250)))))))
 ))
 (let ((?x2714 (sc_t 2)))
 (let (($x10940 (= ?x2714 (bvadd (_ bv1 6) (sc_t 1)))))
 (let ((?x6171 (used_gas_t x_0 x_1 x_CALLDATASIZE 2)))
 (let (($x6573 (forall ((w (_ BitVec 256)) )(let ((?x3910 (storage_t x_0 x_1 x_CALLDATASIZE 0 w)))
 (let ((?x10732 (storage_t x_0 x_1 x_CALLDATASIZE 1 w)))
 (= ?x10732 ?x3910))))
 ))
 (let (($x6657 (forall ((n (_ BitVec 6)) )(let ((?x762 (stack_t x_0 x_1 x_CALLDATASIZE 0 n)))
 (let ((?x2250 (stack_t x_0 x_1 x_CALLDATASIZE 1 n)))
 (or (bvsle (bvadd (_ bv63 6) (sc_t 0)) n) (= ?x2250 ?x762)))))
 ))
 (let ((?x2091 (bvadd (_ bv63 6) ?x63)))
 (let ((?x7154 (sc_t 1)))
 (let (($x8683 (= ?x7154 ?x2091)))
 (let (($x7037 (= $x772 (or (exc_halt_s 5) (not (bvsle (_ bv0 6) (bvadd (_ bv63 6) (sc_s 5))))))))
 (let (($x5707 (forall ((w (_ BitVec 256)) )(let ((?x1821 (storage_s x_0 x_1 x_CALLDATASIZE 5 w)))
 (let ((?x7388 (storage_s x_0 x_1 x_CALLDATASIZE 6 w)))
 (= ?x7388 ?x1821))))
 ))
 (let (($x5631 (forall ((n (_ BitVec 6)) )(let ((?x2862 (stack_s x_0 x_1 x_CALLDATASIZE 5 n)))
 (let ((?x10855 (stack_s x_0 x_1 x_CALLDATASIZE 6 n)))
 (or (= ?x10855 ?x2862) (bvsle (bvadd (_ bv63 6) (sc_s 5)) n)))))
 ))
 (let ((?x4319 (sc_s 5)))
 (let (($x4783 (= ?x926 ?x4319)))
 (let (($x4660 (= (used_gas_s x_0 x_1 x_CALLDATASIZE 6) (+ 3 (used_gas_s x_0 x_1 x_CALLDATASIZE 5)))))
 (let ((?x7067 (ite (= (stack_s x_0 x_1 x_CALLDATASIZE 5 (bvadd (_ bv63 6) ?x4319)) (_ bv0 256)) (_ bv1 256) (_ bv0 256))))
 (let (($x11317 (exc_halt_s 5)))
 (let (($x8463 (= $x11317 (or (exc_halt_s 4) (not (bvsle (_ bv0 6) (bvadd (_ bv63 6) (sc_s 4))))))))
 (let (($x6645 (forall ((w (_ BitVec 256)) )(let ((?x8154 (storage_s x_0 x_1 x_CALLDATASIZE 4 w)))
 (let ((?x1821 (storage_s x_0 x_1 x_CALLDATASIZE 5 w)))
 (= ?x1821 ?x8154))))
 ))
 (let (($x5743 (forall ((n (_ BitVec 6)) )(let ((?x9580 (stack_s x_0 x_1 x_CALLDATASIZE 4 n)))
 (let ((?x2862 (stack_s x_0 x_1 x_CALLDATASIZE 5 n)))
 (let ((?x4305 (sc_s 4)))
 (let ((?x3903 (bvadd (_ bv63 6) ?x4305)))
 (let (($x6663 (bvsle ?x3903 n)))
 (or $x6663 (= ?x2862 ?x9580))))))))
 ))
 (let ((?x10519 (used_gas_s x_0 x_1 x_CALLDATASIZE 5)))
 (let ((?x7409 (ite (= (stack_s x_0 x_1 x_CALLDATASIZE 4 (bvadd (_ bv63 6) (sc_s 4))) (_ bv0 256)) (_ bv1 256) (_ bv0 256))))
 (let ((?x669 (bvadd (_ bv63 6) ?x4319)))
 (let ((?x7713 (stack_s x_0 x_1 x_CALLDATASIZE 5 ?x669)))
 (let (($x7172 (exc_halt_s 4)))
 (let (($x2634 (= $x7172 (or (exc_halt_s 3) (not (bvsle (_ bv0 6) (bvadd (_ bv62 6) (sc_s 3))))))))
 (let (($x4086 (forall ((w (_ BitVec 256)) )(let ((?x6598 (storage_s x_0 x_1 x_CALLDATASIZE 3 w)))
 (let ((?x8154 (storage_s x_0 x_1 x_CALLDATASIZE 4 w)))
 (= ?x8154 ?x6598))))
 ))
 (let (($x5591 (forall ((n (_ BitVec 6)) )(let ((?x8857 (stack_s x_0 x_1 x_CALLDATASIZE 3 n)))
 (let ((?x9580 (stack_s x_0 x_1 x_CALLDATASIZE 4 n)))
 (let ((?x275 (sc_s 3)))
 (let ((?x9733 (bvadd (_ bv62 6) ?x275)))
 (let (($x8371 (bvsle ?x9733 n)))
 (or $x8371 (= ?x9580 ?x8857))))))))
 ))
 (let ((?x7103 (used_gas_s x_0 x_1 x_CALLDATASIZE 4)))
 (let (($x8319 (= (stack_s x_0 x_1 x_CALLDATASIZE 3 (bvadd (_ bv63 6) (sc_s 3))) (stack_s x_0 x_1 x_CALLDATASIZE 3 (bvadd (_ bv62 6) (sc_s 3))))))
 (let ((?x4305 (sc_s 4)))
 (let ((?x3903 (bvadd (_ bv63 6) ?x4305)))
 (let ((?x4421 (stack_s x_0 x_1 x_CALLDATASIZE 4 ?x3903)))
 (let (($x292 (exc_halt_s 3)))
 (let (($x4293 (= $x292 (or (exc_halt_s 2) (not (bvsle (_ bv0 6) (bvadd (_ bv63 6) (sc_s 2))))))))
 (let (($x2272 (forall ((w (_ BitVec 256)) )(let ((?x5226 (storage_s x_0 x_1 x_CALLDATASIZE 2 w)))
 (let ((?x6598 (storage_s x_0 x_1 x_CALLDATASIZE 3 w)))
 (= ?x6598 ?x5226))))
 ))
 (let (($x10985 (forall ((n (_ BitVec 6)) )(let ((?x7204 (stack_s x_0 x_1 x_CALLDATASIZE 2 n)))
 (let ((?x8857 (stack_s x_0 x_1 x_CALLDATASIZE 3 n)))
 (or (= ?x8857 ?x7204) (bvsle (bvadd (_ bv63 6) (sc_s 2)) n)))))
 ))
 (let ((?x9381 (used_gas_s x_0 x_1 x_CALLDATASIZE 3)))
 (let (($x247 (exc_halt_s 2)))
 (let (($x6209 (= $x247 (or (exc_halt_s 1) (not (bvsle (_ bv0 6) (bvadd (_ bv62 6) (sc_s 1))))))))
 (let (($x10444 (forall ((w (_ BitVec 256)) )(let ((?x11112 (storage_s x_0 x_1 x_CALLDATASIZE 1 w)))
 (let ((?x5226 (storage_s x_0 x_1 x_CALLDATASIZE 2 w)))
 (= ?x5226 ?x11112))))
 ))
 (let (($x7830 (forall ((n (_ BitVec 6)) )(let ((?x6131 (stack_s x_0 x_1 x_CALLDATASIZE 1 n)))
 (let ((?x7204 (stack_s x_0 x_1 x_CALLDATASIZE 2 n)))
 (let ((?x154 (sc_s 1)))
 (let ((?x6153 (bvadd (_ bv62 6) ?x154)))
 (let (($x6121 (bvsle ?x6153 n)))
 (or $x6121 (= ?x7204 ?x6131))))))))
 ))
 (let ((?x154 (sc_s 1)))
 (let ((?x218 (sc_s 2)))
 (let (($x2831 (= ?x218 ?x154)))
 (let ((?x7997 (used_gas_s x_0 x_1 x_CALLDATASIZE 2)))
 (let (($x7203 (= (stack_s x_0 x_1 x_CALLDATASIZE 2 (bvadd (_ bv62 6) ?x218)) (stack_s x_0 x_1 x_CALLDATASIZE 1 (bvadd (_ bv63 6) ?x154)))))
 (let (($x7420 (= (stack_s x_0 x_1 x_CALLDATASIZE 2 (bvadd (_ bv63 6) ?x218)) (stack_s x_0 x_1 x_CALLDATASIZE 1 (bvadd (_ bv62 6) ?x154)))))
 (let (($x189 (exc_halt_s 1)))
 (let (($x9742 (= $x189 (or $x57 (not (= ((_ extract 6 6) (bvadd (_ bv1 7) (concat (_ bv0 1) ?x72))) (_ bv0 1)))))))
 (let (($x698 (forall ((w (_ BitVec 256)) )(let ((?x793 (storage_s x_0 x_1 x_CALLDATASIZE 0 w)))
 (let ((?x11112 (storage_s x_0 x_1 x_CALLDATASIZE 1 w)))
 (= ?x11112 ?x793))))
 ))
 (let (($x448 (forall ((n (_ BitVec 6)) )(let ((?x10131 (stack_s x_0 x_1 x_CALLDATASIZE 0 n)))
 (let ((?x6131 (stack_s x_0 x_1 x_CALLDATASIZE 1 n)))
 (let ((?x72 (sc_s 0)))
 (let (($x8583 (bvsle ?x72 n)))
 (or $x8583 (= ?x6131 ?x10131)))))))
 ))
 (let (($x4777 (= ?x154 (bvadd (_ bv1 6) ?x72))))
 (let (($x7726 (forall ((w (_ BitVec 256)) )(let ((?x793 (storage_s x_0 x_1 x_CALLDATASIZE 0 w)))
 (= ?x793 (_ bv0 256))))
 ))
 (let (($x7274 (= ?x3411 0)))
 (let (($x11625 (not $x57)))
 (let (($x9154 (= (stack_s x_0 x_1 x_CALLDATASIZE 0 (_ bv1 6)) x_1)))
 (let (($x8082 (= (stack_s x_0 x_1 x_CALLDATASIZE 0 (_ bv0 6)) x_0)))
 (let (($x11128 (= ?x72 (_ bv2 6))))
 (and $x11128 $x8082 $x9154 $x11625 $x7274 $x7726 (= (stack_s x_0 x_1 x_CALLDATASIZE 1 ?x72) x_CALLDATASIZE) (= (used_gas_s x_0 x_1 x_CALLDATASIZE 1) (+ 2 ?x3411)) $x4777 $x448 $x698 $x9742 $x7420 $x7203 (= ?x7997 (+ 3 (used_gas_s x_0 x_1 x_CALLDATASIZE 1))) $x2831 $x7830 $x10444 $x6209 (= ?x9381 (+ 2 ?x7997)) (= (sc_s 3) (bvadd (_ bv63 6) ?x218)) $x10985 $x2272 $x4293 (= ?x4421 (ite $x8319 (_ bv1 256) (_ bv0 256))) (= ?x7103 (+ 3 ?x9381)) (= ?x4305 (bvadd (_ bv63 6) (sc_s 3))) $x5591 $x4086 $x2634 (= ?x7713 ?x7409) (= ?x10519 (+ 3 ?x7103)) (= ?x4319 ?x4305) $x5743 $x6645 $x8463 (= (stack_s x_0 x_1 x_CALLDATASIZE 6 (bvadd (_ bv63 6) ?x926)) ?x7067) $x4660 $x4783 $x5631 $x5707 $x7037 (= (used_gas_t x_0 x_1 x_CALLDATASIZE 1) (+ 2 ?x5852)) $x8683 $x6657 $x6573 (= $x8377 (or $x56 (not (bvsle (_ bv0 6) ?x2091)))) (= (stack_t x_0 x_1 x_CALLDATASIZE 2 ?x7154) x_CALLDATASIZE) (= ?x6171 (+ 2 (used_gas_t x_0 x_1 x_CALLDATASIZE 1))) $x10940 $x4167 $x3305 $x1605 $x1928 $x3927 (= ?x11304 (bvadd (_ bv63 6) ?x2714)) $x2436 $x6586 $x6831 $x73 $x11810 $x58 $x2479 $x3707 (not (and $x2971 $x412 $x10130 $x8020)))))))))))))))))))))))))))))))))))))))))))))))))))))))))))))))))))))))))))))))))))))))))))))
 )
(check-sat)
(get-proof)
